NAME           
ROWS
 N  obj     
 G  c1      
COLUMNS
    MARK0000  'MARKER'                 'INTORG'
    x1        obj                -11   c1                   5
    x2        obj                -12   c1                   6
    x3        obj                -13   c1                   7
    x4        obj                -15   c1                   8
    x5        obj                -15   c1                   9
    x6        obj                 -7   c1                   2
    x7        obj                -12   c1                   5
    x8        obj                -10   c1                   7
    x9        obj                -19   c1                  10
    x10       obj                -16   c1                   9
    MARK0001  'MARKER'                 'INTEND'
RHS
RANGES
    rng       c1                  40
BOUNDS
 UP bnd       x1                   1
 UP bnd       x2                   1
 UP bnd       x3                   1
 UP bnd       x4                   1
 UP bnd       x5                   1
 UP bnd       x6                   1
 UP bnd       x7                   1
 UP bnd       x8                   1
 UP bnd       x9                   1
 UP bnd       x10                  1
ENDATA
